NAME 
ROWS
 N  OBJ
 L  R0      
 L  R1      
 E  R2      
 E  R3      
 E  R4      
 E  R5      
 E  R6      
 E  R7      
 E  R8      
 E  R9      
 E  R10     
 E  R11     
 E  R12     
 E  R13     
 E  R14     
 E  R15     
 E  R16     
COLUMNS
    MARKER    'MARKER'                 'INTORG'
    I0(8)     OBJ       -108
    I0(8)     R0        192
    I0(8)     R1        -17
    I0(8)     R2        13
    I0(8)     R4        11
    I0(8)     R5        3
    I0(8)     R6        10
    I0(8)     R7        10
    I0(8)     R16       1
    I1(6)     OBJ       190
    I1(6)     R0        -26
    I1(6)     R1        -38
    I1(6)     R2        17
    I1(6)     R5        18
    I1(6)     R6        8
    I1(6)     R16       1
    I2(7)     OBJ       111
    I2(7)     R0        172
    I2(7)     R1        -88
    I2(7)     R2        12
    I2(7)     R3        3
    I2(7)     R6        16
    I2(7)     R7        3
    I2(7)     R16       1
    I3(6)     OBJ       131
    I3(6)     R0        29
    I3(6)     R1        85
    I3(6)     R3        10
    I3(6)     R4        7
    I3(6)     R7        15
    I3(6)     R16       1
    I4(7)     OBJ       9
    I4(7)     R0        65
    I4(7)     R1        -54
    I4(7)     R4        1
    I4(7)     R5        15
    I4(7)     R6        5
    I4(7)     R7        7
    I4(7)     R16       1
    I5(7)     OBJ       -17
    I5(7)     R0        -137
    I5(7)     R1        -60
    I5(7)     R2        15
    I5(7)     R3        19
    I5(7)     R4        16
    I5(7)     R7        15
    I5(7)     R16       1
    MARKER    'MARKER'                 'INTEND'
    C6(8)     OBJ       4
    C6(8)     R0        -1
    C6(8)     R1        1
    C6(8)     R3        16
    C6(8)     R5        -1
    C6(8)     R8        5
    C6(8)     R9        2
    C6(8)     R10       18
    C6(8)     R15       12
    C7(12)    OBJ       9
    C7(12)    R0        7
    C7(12)    R1        2
    C7(12)    R3        11
    C7(12)    R4        7
    C7(12)    R6        11
    C7(12)    R8        6
    C7(12)    R9        19
    C7(12)    R11       14
    C7(12)    R12       9
    C7(12)    R13       -1
    C7(12)    R14       15
    C7(12)    R15       9
    C8(10)    OBJ       -2
    C8(10)    R1        7
    C8(10)    R4        11
    C8(10)    R6        7
    C8(10)    R7        14
    C8(10)    R8        11
    C8(10)    R9        14
    C8(10)    R11       1
    C8(10)    R13       6
    C8(10)    R14       14
    C8(10)    R15       11
    C9(11)    OBJ       -2
    C9(11)    R0        2
    C9(11)    R1        -5
    C9(11)    R2        2
    C9(11)    R3        10
    C9(11)    R4        3
    C9(11)    R7        1
    C9(11)    R8        12
    C9(11)    R9        13
    C9(11)    R11       1
    C9(11)    R12       14
    C9(11)    R13       11
    C10(10)   OBJ       3
    C10(10)   R0        -4
    C10(10)   R1        6
    C10(10)   R2        9
    C10(10)   R3        9
    C10(10)   R5        1
    C10(10)   R6        -1
    C10(10)   R9        17
    C10(10)   R13       13
    C10(10)   R14       16
    C10(10)   R15       11
    C11(13)   OBJ       -1
    C11(13)   R0        9
    C11(13)   R1        -2
    C11(13)   R2        16
    C11(13)   R4        13
    C11(13)   R5        5
    C11(13)   R6        16
    C11(13)   R7        18
    C11(13)   R9        16
    C11(13)   R10       12
    C11(13)   R11       1
    C11(13)   R12       9
    C11(13)   R13       16
    C11(13)   R15       4
    C12(9)    OBJ       -7
    C12(9)    R0        6
    C12(9)    R1        6
    C12(9)    R2        7
    C12(9)    R3        19
    C12(9)    R6        19
    C12(9)    R7        7
    C12(9)    R8        5
    C12(9)    R10       5
    C12(9)    R13       17
    C13(13)   OBJ       4
    C13(13)   R0        2
    C13(13)   R1        -6
    C13(13)   R2        13
    C13(13)   R3        13
    C13(13)   R5        18
    C13(13)   R7        14
    C13(13)   R9        13
    C13(13)   R10       2
    C13(13)   R11       19
    C13(13)   R12       2
    C13(13)   R13       8
    C13(13)   R14       15
    C13(13)   R15       10
    C14(14)   OBJ       -8
    C14(14)   R0        4
    C14(14)   R1        6
    C14(14)   R2        16
    C14(14)   R4        5
    C14(14)   R5        14
    C14(14)   R6        4
    C14(14)   R7        6
    C14(14)   R8        13
    C14(14)   R9        17
    C14(14)   R10       7
    C14(14)   R11       9
    C14(14)   R12       16
    C14(14)   R13       9
    C14(14)   R14       11
    C15(1)    R2        1
    C16(1)    R3        1
    C17(1)    R4        1
    C18(1)    R5        1
    C19(1)    R6        1
    C20(1)    R7        1
    C21(1)    R8        1
    C22(1)    R9        1
    C23(1)    R10       1
    C24(1)    R11       1
    C25(1)    R12       1
    C26(1)    R13       1
    C27(1)    R14       1
    C28(1)    R15       1
    C29(1)    R16       1
RHS
    RHS1      R0        4.0957681895658567e+02
    RHS1      R1        2.0039771398017336e+00
    RHS1      R2        84
    RHS1      R3        74
    RHS1      R4        84
    RHS1      R5        83
    RHS1      R6        85
    RHS1      R7        94
    RHS1      R8        59
    RHS1      R9        99
    RHS1      R10       61
    RHS1      R11       74
    RHS1      R12       78
    RHS1      R13       74
    RHS1      R14       64
    RHS1      R15       98
    RHS1      R16       2
BOUNDS
 UP BND1      I0(8)     2
 UP BND1      I1(6)     2
 UP BND1      I2(7)     2
 UP BND1      I3(6)     2
 UP BND1      I4(7)     2
 UP BND1      I5(7)     2
ENDATA
